data/hard_2.dzn
num_nodi = 8;
ufficio_postale = 7;
dim_borsa = 20;
max_step = 32;
elenco_lettere = [20, 14, 8, 8, 13, 20, 0, 0];
distanze = [|0, 16, 9, 15, 22, 16, 22, 20
|2, 0, 7, 19, 8, 25, 8, 19
|10, 24, 0, 19, 13, 10, 18, 22
|8, 4, 22, 0, 8, 22, 16, 18
|24, 13, 17, 17, 0, 19, 7, 22
|14, 3, 6, 18, 3, 0, 3, 13
|12, 22, 5, 20, 24, 3, 0, 2
|16, 20, 19, 23, 1, 14, 17, 0
|];
