data/hard_2.lp
node(1..8).

ufficio_postale(7).

dim_borsa(20).

time(1..32).

lettere(1,20).
lettere(2,14).
lettere(3,8).
lettere(4,8).
lettere(5,13).
lettere(6,20).
lettere(7,0).
lettere(8,0).

costo_arco(1, 1, 0).
costo_arco(1, 2, 16).
costo_arco(1, 3, 9).
costo_arco(1, 4, 15).
costo_arco(1, 5, 22).
costo_arco(1, 6, 16).
costo_arco(1, 7, 22).
costo_arco(1, 8, 20).

costo_arco(2, 1, 2).
costo_arco(2, 2, 0).
costo_arco(2, 3, 7).
costo_arco(2, 4, 19).
costo_arco(2, 5, 8).
costo_arco(2, 6, 25).
costo_arco(2, 7, 8).
costo_arco(2, 8, 19).

costo_arco(3, 1, 10).
costo_arco(3, 2, 24).
costo_arco(3, 3, 0).
costo_arco(3, 4, 19).
costo_arco(3, 5, 13).
costo_arco(3, 6, 10).
costo_arco(3, 7, 18).
costo_arco(3, 8, 22).

costo_arco(4, 1, 8).
costo_arco(4, 2, 4).
costo_arco(4, 3, 22).
costo_arco(4, 4, 0).
costo_arco(4, 5, 8).
costo_arco(4, 6, 22).
costo_arco(4, 7, 16).
costo_arco(4, 8, 18).

costo_arco(5, 1, 24).
costo_arco(5, 2, 13).
costo_arco(5, 3, 17).
costo_arco(5, 4, 17).
costo_arco(5, 5, 0).
costo_arco(5, 6, 19).
costo_arco(5, 7, 7).
costo_arco(5, 8, 22).

costo_arco(6, 1, 14).
costo_arco(6, 2, 3).
costo_arco(6, 3, 6).
costo_arco(6, 4, 18).
costo_arco(6, 5, 3).
costo_arco(6, 6, 0).
costo_arco(6, 7, 3).
costo_arco(6, 8, 13).

costo_arco(7, 1, 12).
costo_arco(7, 2, 22).
costo_arco(7, 3, 5).
costo_arco(7, 4, 20).
costo_arco(7, 5, 24).
costo_arco(7, 6, 3).
costo_arco(7, 7, 0).
costo_arco(7, 8, 2).

costo_arco(8, 1, 16).
costo_arco(8, 2, 20).
costo_arco(8, 3, 19).
costo_arco(8, 4, 23).
costo_arco(8, 5, 1).
costo_arco(8, 6, 14).
costo_arco(8, 7, 17).
costo_arco(8, 8, 0).

